4 4 1 1 111111
15 2 1 3 4 2 2 3 7 4 5 2 2 3 4 3 2 2 2 4 7 1 4 2 1 2 2 2 1 3 3 3 1 1 1 2 1 1 3 3 1 1 7 1 3 3 2 1 6 4 5 2 3 1 4 5 2 3 5 4 7 1 3 6 
15 2 2 3 4 1 2 2 7 3 1 1 1 7 1 3 6 1 3 4 1 1 4 2 1 4 2 6 2 1 4 3 3 2 2 2 3 4 2 1 5 3 7 1 3 1 1 2 7 2 1 1 4 6 2 3 2 4 5 2 1 1 4 3 
15 1 1 5 1 1 5 1 1 2 2 1 4 2 6 1 1 4 1 4 7 2 1 4 3 6 2 1 6 4 1 1 1 1 1 1 7 2 1 5 3 5 2 3 6 4 7 2 3 7 4 2 2 2 3 4 1 1 2 5 
15 2 1 5 4 5 2 1 1 2 5 2 2 4 3 2 1 3 5 2 2 2 3 2 1 3 7 2 3 2 4 2 2 2 6 3 3 2 3 5 4 2 2 1 7 4 4 2 3 1 4 4 2 1 5 4 1 2 1 4 4 4 2 2 4 4 4 1 1 4 
0 3 1 4 7 
1 0 2 2 14 
1 1 3 5 6 10 
0 3 4 5 7 
2 0 3 3 6 9 10 
2 2 3 2 9 11 
2 2 4 2 12 13 
2 0 3 3 11 13 14 
0 3 9 10 14 
3 4 5 8 1 12 
3 2 4 8 2 11 13 
3 7 5 10 1 12 
3 6 11 9 0 
3 10 7 6 0 
3 7 8 1 0 
0 3 16 18 26 
1 15 3 19 22 24 
0 2 18 26 
2 15 17 3 19 22 24 
2 18 16 2 21 25 
0 3 21 22 24 
2 19 20 1 23 
3 16 20 18 3 23 25 27 
2 21 22 2 28 29 
3 16 18 20 3 25 27 29 
3 19 24 22 1 28 
2 17 15 3 27 28 29 
3 26 24 22 0 
3 25 23 26 0 
3 24 26 23 0 
0 3 33 34 36 
0 3 33 34 36 
0 3 33 34 36 
3 30 31 32 2 35 38 
3 32 30 31 3 35 38 39 
2 33 34 3 37 40 41 
3 32 31 30 3 37 38 39 
2 36 35 2 42 43 
3 33 34 36 2 40 41 
2 36 34 3 40 41 43 
3 35 39 38 2 42 44 
3 35 38 39 2 42 44 
3 40 37 41 0 
2 39 37 1 44 
3 41 43 40 0 
0 3 47 53 55 
0 3 47 53 55 
2 45 46 3 48 49 56 
1 47 3 50 51 54 
1 47 3 50 51 54 
2 48 49 1 57 
2 48 49 2 58 59 
0 3 53 54 55 
3 45 52 46 2 56 57 
3 48 52 49 1 57 
3 46 52 45 1 56 
3 47 55 53 2 58 59 
3 54 53 50 2 58 59 
3 57 56 51 0 
3 56 57 51 0 
